#3 fornitori, 2 materie prime, 3 prodotti
set I := forn1 forn2 forn3;
set J := mat1 mat2;
set K := prod1 prod2 prod3;

param P := prod1 10 prod2 20 prod3 30;
param F := forn1 20 forn2 30 forn3 40;
param M := forn1 100 forn2 200 forn3 300;
param B := 5000;

param C (tr): 	forn1 	forn2 	forn3 :=
mat1			10		20		30
mat2			40		50		60
;

param Q (tr): 	mat1 	mat2 :=
prod1			5		10
prod2			15		20
prod3			25		30
;
